
Gurobi 11.0.3 (linux64) logging started Mon 18 Nov 2024 10:28:47 PM CST

Set parameter LogFile to value "/home/dlcole3/graph_abstraction/hierarchical_graphs/git_storage/CS1/HP_low_reserves/gurobi_logs/serial/logfile_DA_17.log"
Set parameter TimeLimit to value 900

Gurobi 11.0.3 (linux64) logging started Mon 18 Nov 2024 10:28:48 PM CST

Set parameter LogFile to value "/home/dlcole3/graph_abstraction/hierarchical_graphs/git_storage/CS1/HP_low_reserves/gurobi_logs/serial/logfile_DA_17.log"
Gurobi Optimizer version 11.0.3 build v11.0.3rc0 (linux64 - "Ubuntu 18.04.3 LTS")

CPU model: Intel(R) Xeon(R) CPU E5-2698 v4 @ 2.20GHz, instruction set [SSE2|AVX|AVX2]
Thread count: 40 physical cores, 80 logical processors, using up to 20 threads

Optimize a model with 35850 rows, 31725 columns and 164765 nonzeros
Model fingerprint: 0x03c0a283
Variable types: 19950 continuous, 11775 integer (11775 binary)
Coefficient statistics:
  Matrix range     [5e-02, 2e+04]
  Objective range  [1e+00, 8e+04]
  Bounds range     [5e-02, 2e+05]
  RHS range        [4e-15, 7e+03]
Presolve removed 5554 rows and 6871 columns
Presolve time: 0.66s
Presolved: 30296 rows, 24854 columns, 140823 nonzeros
Variable types: 14800 continuous, 10054 integer (10054 binary)
Found heuristic solution: objective 1.014104e+09
Found heuristic solution: objective 1.011119e+09
Found heuristic solution: objective 7.287603e+08
Deterministic concurrent LP optimizer: primal and dual simplex
Showing primal log only...

Concurrent spin time: 0.00s

Solved with dual simplex

Root relaxation: objective 1.090714e+07, 13796 iterations, 1.07 seconds (0.81 work units)

    Nodes    |    Current Node    |     Objective Bounds      |     Work
 Expl Unexpl |  Obj  Depth IntInf | Incumbent    BestBd   Gap | It/Node Time

     0     0 1.0907e+07    0   90 7.2876e+08 1.0907e+07  98.5%     -    3s
H    0     0                    7.282600e+08 1.0907e+07  98.5%     -    3s
H    0     0                    1.300297e+07 1.0911e+07  16.1%     -    3s
H    0     0                    1.273992e+07 1.0911e+07  14.4%     -    3s
     0     0 1.0911e+07    0  115 1.2740e+07 1.0911e+07  14.4%     -    3s
H    0     0                    1.255029e+07 1.0913e+07  13.0%     -    4s
     0     0 1.0913e+07    0  118 1.2550e+07 1.0913e+07  13.0%     -    4s
     0     0 1.0913e+07    0  150 1.2550e+07 1.0913e+07  13.0%     -    4s
H    0     0                    1.241217e+07 1.0913e+07  12.1%     -    4s
     0     0 1.0913e+07    0  150 1.2412e+07 1.0913e+07  12.1%     -    5s
H    0     0                    1.132569e+07 1.0915e+07  3.63%     -    6s
     0     2 1.0915e+07    0  150 1.1326e+07 1.0915e+07  3.63%     -    7s
    15    32 1.0928e+07    4   94 1.1326e+07 1.0920e+07  3.58%   266   10s
H   32    52                    1.132569e+07 1.0922e+07  3.56%   262   11s
H   39    52                    1.132568e+07 1.0922e+07  3.56%   255   11s
H   94   112                    1.126928e+07 1.0923e+07  3.07%   212   14s
H  102   112                    1.124759e+07 1.0923e+07  2.88%   206   14s
H  104   112                    1.122807e+07 1.0923e+07  2.71%   207   14s
   131   152 1.0950e+07    9  109 1.1228e+07 1.0923e+07  2.71%   208   15s
H  151   172                    1.122806e+07 1.0923e+07  2.71%   203   16s
H  152   172                    1.120687e+07 1.0923e+07  2.53%   203   16s
H  153   172                    1.118422e+07 1.0923e+07  2.33%   202   16s
H  154   172                    1.118367e+07 1.0923e+07  2.33%   202   16s
H  162   172                    1.104869e+07 1.0923e+07  1.14%   200   16s
   280   316 1.0954e+07   14   99 1.1049e+07 1.0923e+07  1.14%   181   20s
H  616   660                    1.104779e+07 1.0923e+07  1.13%   137   23s
   711   796 1.0965e+07   32   81 1.1048e+07 1.0923e+07  1.13%   130   25s
  1270  1366 1.0979e+07   46   89 1.1048e+07 1.0923e+07  1.13%   113   30s
  1462  1523 1.0981e+07   53   55 1.1048e+07 1.0923e+07  1.13%   110   39s
H 1465  1149                    1.096718e+07 1.0923e+07  0.40%   110   39s
H 1478  1149                    1.095963e+07 1.0923e+07  0.33%   109   39s
H 1486  1149                    1.095103e+07 1.0923e+07  0.25%   109   39s
  1527  1063     cutoff   57      1.0951e+07 1.0924e+07  0.25%   108   40s
  2393  1232 1.0938e+07   18  101 1.0951e+07 1.0928e+07  0.21%   107   45s
H 2603  1253                    1.095102e+07 1.0928e+07  0.21%   105   47s
H 2629  1252                    1.095101e+07 1.0928e+07  0.21%   106   47s
  2638  1254 1.0945e+07   21   95 1.0951e+07 1.0928e+07  0.21%   106   55s
H 3025  1580                    1.095100e+07 1.0928e+07  0.21%   102   57s
H 3144  1338                    1.094894e+07 1.0928e+07  0.19%   100   59s
  3145  1327 1.0948e+07   35  150 1.0949e+07 1.0928e+07  0.19%   100   62s
  3148  1329 1.0944e+07   56   88 1.0949e+07 1.0928e+07  0.19%   100   65s
  3275  1340 1.0928e+07   23   79 1.0949e+07 1.0928e+07  0.19%   106   70s
H 3386  1286                    1.094706e+07 1.0928e+07  0.17%   107   76s
H 3388  1222                    1.094647e+07 1.0928e+07  0.16%   107   76s
H 3404  1157                    1.094641e+07 1.0928e+07  0.16%   107   76s
H 3406  1098                    1.094570e+07 1.0928e+07  0.16%   107   76s
  3704  1203 1.0943e+07   44   57 1.0946e+07 1.0928e+07  0.16%   102   80s
  4510  1261 1.0943e+07   35   65 1.0946e+07 1.0928e+07  0.16%  92.3   85s
H 4521  1203                    1.094569e+07 1.0928e+07  0.16%  92.2   85s
H 5548  1259                    1.094446e+07 1.0930e+07  0.13%  83.2   91s
H 5556  1207                    1.094436e+07 1.0930e+07  0.13%  83.2   91s

Cutting planes:
  Gomory: 2

Explored 6658 nodes (524304 simplex iterations) in 94.93 seconds (96.47 work units)
Thread count was 20 (of 80 available processors)

Solution count 10: 1.09444e+07 1.09444e+07 1.09445e+07 ... 1.0951e+07

Optimal solution found (tolerance 1.00e-03)
Best objective 1.094435721629e+07, best bound 1.093474334916e+07, gap 0.0878%

User-callback calls 28576, time in user-callback 0.05 sec
